/*********************************************
 * OPL 12.9.0.0 Data
 * Author: Administrator
 * Creation Date: 2019年10月5日 at 下午4:10:50
 *********************************************/
nbJobs =5;
nbStages =2;
nbMach =[0,3,2];
nbWork =[0,2,2];
allMach =[0, 3, 5];
B=10000;
OpDurations = [
[2,3,5,21,31],
[47,64,79,37,40],
[30,33,33,61,69],
[58,63,65,73,80],
[38,47,51,27,28]
];
OpDue = [147,509,485,693,364];

 